Model loaded successfully from 'datasets/dummy2.txt'
Set parameter Username
Academic license - for non-commercial use only - expires 2023-07-15
t[0][1]=7.0710678118654755
t[0][2]=8.246211251235321
t[0][3]=12.206555615733702
t[0][4]=7.810249675906654
t[0][5]=2.8284271247461903
t[0][6]=14.422205101855956
t[0][7]=11.180339887498949
t[1][0]=7.0710678118654755
t[1][2]=4.242640687119285
t[1][3]=5.385164807134504
t[1][4]=1.0
t[1][5]=4.242640687119285
t[1][6]=7.615773105863909
t[1][7]=5.0
t[2][0]=8.246211251235321
t[2][1]=4.242640687119285
t[2][3]=5.385164807134504
t[2][4]=5.0
t[2][5]=6.0
t[2][6]=10.0
t[2][7]=3.605551275463989
t[3][0]=12.206555615733702
t[3][1]=5.385164807134504
t[3][2]=5.385164807134504
t[3][4]=5.0990195135927845
t[3][5]=9.433981132056603
t[3][6]=5.385164807134504
t[3][7]=2.0
t[4][0]=7.810249675906654
t[4][1]=1.0
t[4][2]=5.0
t[4][3]=5.0990195135927845
t[4][5]=5.0
t[4][6]=6.708203932499369
t[4][7]=5.0990195135927845
t[5][0]=2.8284271247461903
t[5][1]=4.242640687119285
t[5][2]=6.0
t[5][3]=9.433981132056603
t[5][4]=5.0
t[5][6]=11.661903789690601
t[5][7]=8.54400374531753
t[6][0]=14.422205101855956
t[6][1]=7.615773105863909
t[6][2]=10.0
t[6][3]=5.385164807134504
t[6][4]=6.708203932499369
t[6][5]=11.661903789690601
t[6][7]=7.280109889280518
t[7][0]=11.180339887498949
t[7][1]=5.0
t[7][2]=3.605551275463989
t[7][3]=2.0
t[7][4]=5.0990195135927845
t[7][5]=8.54400374531753
t[7][6]=7.280109889280518
Set parameter TimeLimit to value 10
Set parameter LazyConstraints to value 1
Gurobi Optimizer version 9.5.2 build v9.5.2rc0 (linux64)
Thread count: 8 physical cores, 16 logical processors, using up to 16 threads
Optimize a model with 387 rows, 262 columns and 1757 nonzeros
Model fingerprint: 0x57992b3f
Model has 21 general constraints
Variable types: 73 continuous, 189 integer (189 binary)
Coefficient statistics:
  Matrix range     [1e+00, 1e+04]
  Objective range  [1e+00, 1e+01]
  Bounds range     [1e+00, 1e+00]
  RHS range        [1e+00, 1e+04]
Presolve added 35 rows and 63 columns
Presolve time: 0.00s
Presolved: 422 rows, 325 columns, 1876 nonzeros
Presolved model has 42 SOS constraint(s)
Variable types: 94 continuous, 231 integer (231 binary)

Root relaxation: objective 2.563829e+01, 102 iterations, 0.00 seconds (0.00 work units)

    Nodes    |    Current Node    |     Objective Bounds      |     Work
 Expl Unexpl |  Obj  Depth IntInf | Incumbent    BestBd   Gap | It/Node Time

     0     0   25.63829    0   35          -   25.63829      -     -    0s
CALLBACK: MIPSOL
(0, 4, 0)
(4, 0, 0)
(0, 5, 2)
(5, 1, 2)
(1, 7, 2)
(7, 2, 2)
(2, 3, 2)
(3, 6, 2)
(6, 0, 2)
H    0     0                    69726.489653   25.63829   100%     -    0s
     0     0   25.63829    0   56 69726.4897   25.63829   100%     -    0s
     0     0   25.63829    0   55 69726.4897   25.63829   100%     -    0s
     0     0   25.63982    0   37 69726.4897   25.63982   100%     -    0s
CALLBACK: MIPSOL
(0, 3, 0)
(3, 6, 0)
(6, 4, 0)
(4, 1, 0)
(1, 0, 0)
(0, 5, 2)
(5, 0, 2)
(0, 7, 1)
(7, 2, 1)
(2, 0, 1)
H    0     0                    39954.665500   25.63982   100%     -    0s
     0     0   27.05971    0   37 39954.6655   27.05971   100%     -    0s
     0     0   28.59841    0   41 39954.6655   28.59841   100%     -    0s
     0     0   28.59841    0   44 39954.6655   28.59841   100%     -    0s
     0     0   28.59841    0   68 39954.6655   28.59841   100%     -    0s
     0     0   28.59841    0   19 39954.6655   28.59841   100%     -    0s
     0     0   28.59841    0   15 39954.6655   28.59841   100%     -    0s
     0     0   28.59841    0   15 39954.6655   28.59841   100%     -    0s
CALLBACK: MIPSOL
(0, 4, 2)
(4, 1, 2)
(1, 2, 2)
(2, 7, 2)
(7, 3, 2)
(3, 6, 2)
(6, 0, 2)
(0, 5, 1)
(5, 0, 1)
H    0     0                     323.2058954   28.59841  91.2%     -    0s
CALLBACK: MIPSOL
(0, 3, 2)
(3, 6, 2)
(6, 4, 2)
(4, 1, 2)
(1, 2, 2)
(2, 7, 2)
(7, 0, 2)
(0, 5, 1)
(5, 0, 1)
H    0     2                     283.1854187   28.59841  89.9%     -    0s
     0     2   28.59841    0   15  283.18542   28.59841  89.9%     -    0s
CALLBACK: MIPSOL
(0, 3, 2)
(3, 1, 2)
(1, 4, 2)
(4, 2, 2)
(2, 6, 2)
(6, 7, 2)
(7, 0, 2)
(0, 5, 1)
(5, 0, 1)
H   64    66                     248.9233102   28.59841  88.5%  12.3    0s
CALLBACK: MIPSOL
(0, 1, 2)
(1, 4, 2)
(4, 3, 2)
(3, 2, 2)
(2, 6, 2)
(6, 7, 2)
(7, 0, 2)
(0, 5, 1)
(5, 0, 1)
H   68    66                     238.9184733   28.59841  88.0%  12.9    0s
CALLBACK: MIPSOL
(0, 1, 2)
(1, 3, 2)
(3, 2, 2)
(2, 6, 2)
(6, 4, 2)
(4, 0, 2)
(0, 5, 1)
(5, 0, 1)
(0, 7, 0)
(7, 0, 0)
H   93    78                     195.9300946   28.59841  85.4%  12.2    0s
CALLBACK: MIPSOL
(0, 1, 2)
(1, 4, 2)
(4, 3, 2)
(3, 2, 2)
(2, 6, 2)
(6, 0, 2)
(0, 5, 1)
(5, 0, 1)
(0, 7, 0)
(7, 0, 0)
H  123   101                     168.6414578   28.59841  83.0%  11.3    0s
CALLBACK: MIPSOL
(0, 1, 0)
(1, 5, 0)
(5, 2, 0)
(2, 0, 0)
(0, 4, 2)
(4, 3, 2)
(3, 6, 2)
(6, 0, 2)
(0, 7, 1)
(7, 0, 1)
H  393   211                     164.2531709   28.59841  82.6%   9.7    0s
CALLBACK: MIPSOL
(0, 3, 2)
(3, 1, 2)
(1, 2, 2)
(2, 0, 2)
(0, 4, 1)
(4, 5, 1)
(5, 6, 1)
(6, 0, 1)
(0, 7, 0)
(7, 0, 0)
H  433   211                     164.1413569   28.59841  82.6%   9.5    0s
CALLBACK: MIPSOL
(0, 1, 0)
(1, 3, 0)
(3, 4, 0)
(4, 2, 0)
(2, 0, 0)
(0, 5, 2)
(5, 0, 2)
(0, 7, 1)
(7, 6, 1)
(6, 0, 1)
*  534   251              30     156.0378786   28.59841  81.7%   9.0    0s
CALLBACK: MIPSOL
(0, 2, 0)
(2, 5, 0)
(5, 4, 0)
(4, 0, 0)
(0, 3, 2)
(3, 1, 2)
(1, 0, 2)
(0, 7, 1)
(7, 6, 1)
(6, 0, 1)
*  838   389              45     153.4968491   30.56528  80.1%   9.0    0s
CALLBACK: MIPSOL
(0, 1, 2)
(1, 3, 2)
(3, 2, 2)
(2, 4, 2)
(4, 0, 2)
(0, 5, 0)
(5, 0, 0)
(0, 7, 1)
(7, 6, 1)
(6, 0, 1)
H  870   389                     135.3157717   30.56528  77.4%   8.9    0s
CALLBACK: MIPSOL
(0, 5, 1)
(5, 3, 1)
(3, 1, 1)
(1, 2, 1)
(2, 4, 1)
(4, 0, 1)
(0, 6, 2)
(6, 0, 2)
(0, 7, 0)
(7, 0, 0)
* 1370   517              27     127.9733206   31.22692  75.6%   9.2    0s
CALLBACK: MIPSOL
(0, 5, 1)
(5, 3, 1)
(3, 1, 1)
(1, 2, 1)
(2, 4, 1)
(4, 0, 1)
(0, 6, 2)
(6, 7, 2)
(7, 0, 2)
* 1371   517              27     127.3707756   31.22692  75.5%   9.1    0s
CALLBACK: MIPSOL
(0, 2, 1)
(2, 4, 1)
(4, 0, 1)
(0, 3, 0)
(3, 5, 0)
(5, 1, 0)
(1, 0, 0)
(0, 6, 2)
(6, 7, 2)
(7, 0, 2)
H 2377   690                     116.6939887   41.44412  64.5%   9.1    0s

Explored 17851 nodes (184577 simplex iterations) in 1.53 seconds (1.37 work units)
Thread count was 16 (of 16 available processors)

Solution count 10: 116.694 127.371 127.973 ... 195.93

Optimal solution found (tolerance 1.00e-04)
Best objective 1.166939886564e+02, best bound 1.166939886564e+02, gap 0.0000%

User-callback calls 36457, time in user-callback 0.06 sec
========= SOLUTION ==========
0 0 4.1
0 3 16.3
0 5 25.8
0 1 30.0
1 0 36.8
1 2 45.0
1 4 50.0
2 0 78.3
2 6 92.7
2 7 100.0
==========================
========= SOLUTION (description) ==========
Bus 0
	t=4.1	PUB ->  (3) t=16.3
	t=16.3	(3) ->  (5) t=25.8
	t=25.8	(5) ->  (1) t=30.0
	t=30.0	(1) ->  PUB
Bus 1
	t=36.8	PUB ->  (2) t=45.0
	t=45.0	(2) ->  (4) t=50.0
	t=50.0	(4) ->  PUB
Bus 2
	t=78.3	PUB ->  (6) t=92.7
	t=92.7	(6) ->  (7) t=100.0
	t=100.0	(7) ->  PUB
==========================================
========= SOLUTION COST ==========
116.69398865644612
==========================================
